c --- [ banner ] -------------------------------------------------------------
c 
c CaDiCaL Radically Simplified CDCL SAT Solver
c Copyright (c) 2016-2019 Armin Biere, JKU Linz
c 
c Version 1.0.3 cb89cbfa16f47cb7bf1ec6ad9855e7b6d5203c18
c Apple LLVM version 9.1.0 (clang-902.0.39.2) -Wall -Wextra -O3 -DNDEBUG -std=c++0x
c Thu Sep 12 14:52:32 EDT 2019 Darwin Peter 17.7.0 x86_64
c 
c --- [ parsing input ] ------------------------------------------------------
c 
c reading DIMACS file from 'tile.cnf'
c opening file to read 'tile.cnf'
c found 'p cnf 2000 74650' header
c parsed 74650 clauses in 0.02 seconds process time
c 
c --- [ options ] ------------------------------------------------------------
c 
c all options are set to their default value
c 
c --- [ solving ] ------------------------------------------------------------
c 
c time measured in process time since initialization
c 
c  seconds  reductions  redundant  irredundant
c         MB    restarts       trail     variables
c          level   conflicts       glue       remaining
c 
c *  0.02  0  0 0   0    0    0  0% 0 74650 2000 100%
c {  0.02  0  0 0   0    0    0  0% 0 74650 2000 100%
c -  0.03  0 11 1  28  300  292 59% 8 74650 2000 100%
c -  0.07  0 14 2  44  902  677 58% 8 74650 2000 100%
c }  0.07  0 15 2  66 1000  771 57% 9 74650 2000 100%
c [  0.07  0  0 2  66 1000  771  0% 0 74650 2000 100%
c O  0.07  0 14 2  66 1002  773 34% 6 74650 2000 100%
c -  0.11  0 11 3  66 1803 1081 60% 7 74650 2000 100%
c ]  0.17  0 10 3  67 3000 2241 57% 8 74650 2000 100%
c {  0.17  0 15 3  67 3000 2241 57% 9 74650 2000 100%
c F  0.17  0 15 3  67 3003 2244 57% 9 74650 2000 100%
c -  0.17  0 15 4  67 3003 1526 57% 9 74650 2000 100%
c -  0.24  0 13 5 115 4504 1881 56% 8 74650 2000 100%
c p  0.29  0 13 5 173 5003 2343 56% 8 74650 2000 100%
c #  0.34  0 14 5 253 6004 3307 56% 9 74650 2000 100%
c -  0.36  0 14 6 276 6304 2259 56% 9 74650 2000 100%
c }  0.39  0 13 6 281 7000 2944 56% 9 74650 2000 100%
c [  0.39  0 10 6 281 7000 2944 57% 8 74650 2000 100%
c -  0.46  0 12 7 282 8405 2715 57% 8 74650 2000 100%
c I  0.54  0 14 7 283 10005 4262 57% 9 74650 2000 100%
c 
c  seconds  reductions   redundant   irredundant
c         MB    restarts        trail      variables
c          level    conflicts       glue        remaining
c 
c s  0.58  0 23 7 284 10445 4663 56% 12 74650 2000 100%
c w  0.60  0 23 7 284 10445 4663 56% 12 74650 2000 100%
c e  0.68  0 23 7 284 10445  154 56% 12 74250 1600 80%
c s  0.70  0 23 7 284 10445  154 56% 12 74250 1600 80%
c -  0.74  0 22 8 284 10805  429 56% 12 74250 1600 80%
c -  1.00  0 19 9 286 13506 2810 57% 11 74250 1600 80%
c ]  1.15  0 18 9 286 15001 4265 57% 11 74250 1600 80%
c {  1.15  0 13 9 286 15001 4265 70% 9 74250 1600 80%
c p  1.22  0 13 9 286 15003 4268 70% 9 74250 1600 80%
c B  1.23  0 13 9 286 15006 4271 70% 9 74250 1600 80%
c -  1.39  0 12 10 371 16507 3726 65% 9 74250 1600 80%
c -  1.73  0 12 11 561 19812 4174 61% 9 74250 1600 80%
c W  1.89  0 12 11 600 21008 5334 61% 9 74250 1600 80%
c -  2.15  0 12 12 803 23415 4627 60% 9 74250 1600 80%
c -  2.58  0 12 13 1036 27317 5002 58% 9 74250 1600 80%
c F  2.65  0 12 13 1059 28011 5664 58% 9 74250 1600 80%
c p  2.95  0 12 13 1109 30004 7573 58% 9 74250 1600 80%
c }  3.07  0 12 13 1174 31002 8525 58% 9 74250 1600 80%
c [  3.07  0 18 13 1174 31002 8525 57% 11 74250 1600 80%
c -  3.13  0 18 14 1174 31519 5385 58% 11 74250 1600 80%
c 
c  seconds  reductions     redundant   irredundant
c         MB     restarts         trail      variables
c          level      conflicts       glue        remaining
c 
c s  3.27  0 17 14 1174 32592 6431 58% 11 74250 1600 80%
c w  3.35  0 17 14 1174 32592 6431 58% 11 74250 1600 80%
c B  3.74  0 17 14 1177 36012 9741 58% 11 74250 1600 80%
c -  3.75  0 17 15 1177 36021 6314 58% 11 74250 1600 80%
c -  4.29  0 17 16 1180 40822 6415 58% 11 74250 1600 80%
c W  4.78  0 17 16 1181 45013 10418 59% 11 74250 1600 80%
c -  4.94  0 17 17 1181 45922 6750 59% 11 74250 1600 80%
c p  5.51  0 18 17 1182 50005 10714 59% 11 74250 1600 80%
c -  5.70  0 18 18 1182 51322 7126 59% 11 74250 1600 80%
c O  6.10  0 17 18 1183 55014 10702 59% 11 74250 1600 80%
c -  6.34  0 17 19 1185 57023 7590 58% 11 74250 1600 80%
c ]  7.00  0 17 19 1189 63002 13361 58% 11 74250 1600 80%
c {  7.00  0 12 19 1189 63002 13361 58% 9 74250 1600 80%
c -  7.01  0 12 20 1193 63023 7930 58% 9 74250 1600 80%
c s  7.37  0 12 20 1243 65813 10597 58% 9 74250 1600 80%
c w  7.49  0 12 20 1243 65813 10597 58% 9 74250 1600 80%
c B  7.57  0 12 20 1243 66016 10794 58% 9 74250 1600 80%
c -  8.00  0 11 21 1405 69323 8636 58% 9 74250 1600 80%
c p  8.82  0 12 21 1828 75006 14133 58% 9 74250 1600 80%
c -  8.94  0 12 22 1864 75923 8788 58% 9 74250 1600 80%
c 
c  seconds  reductions      redundant  irredundant
c         MB     restarts          trail     variables
c          level      conflicts        glue       remaining
c 
c W  9.29  0 11 22 1944 78020 10803 58% 9 74250 1600 80%
c -  9.94  0 11 23 2326 82823 9131 57% 9 74250 1600 80%
c - 10.91  0 12 24 2763 90024 9532 57% 9 74250 1600 80%
c # 11.04  0 12 24 2848 91021 10499 57% 9 74250 1600 80%
c - 11.92  0 12 25 3162 97526 9961 57% 9 74250 1600 80%
c p 13.20  0 11 25 3467 105007 17171 57% 9 74250 1600 80%
c B 13.21  0 11 25 3467 105025 17189 57% 9 74250 1600 80%
c f 13.27  0 11 26 3494 105326 7858 57% 9 74250 1600 80%
c s 13.93  0 11 26 3643 110103 12490 57% 9 74250 1600 80%
c w 14.11  0 11 26 3643 110103 12490 57% 9 74250 1600 80%
c - 14.63  0 11 27 3825 113428 10022 57% 9 74250 1600 80%
c W 15.66  0 11 27 4194 120026 16380 57% 9 74250 1600 80%
c - 15.94  0 11 28 4238 121828 10869 57% 9 74250 1600 80%
c } 16.60  0 11 28 4478 127002 15845 57% 9 74250 1600 80%
c [ 16.60  0 17 28 4478 127002 15845 58% 11 74250 1600 80%
c - 17.12  0 16 29 4478 130529 11366 58% 11 74250 1600 80%
c B 17.84  0 17 29 4482 136029 16723 58% 11 74250 1600 80%
c - 18.37  0 17 30 4485 139530 12068 58% 11 74250 1600 80%
c p 18.53  0 17 30 4485 140008 12531 58% 11 74250 1600 80%
c - 19.86  0 17 31 4486 148831 12418 58% 11 74250 1600 80%
c 
c  seconds  reductions       redundant   irredundant
c         MB     restarts           trail      variables
c          level      conflicts         glue        remaining
c 
c W 20.57  0 17 31 4487 153030 16490 58% 11 74250 1600 80%
c - 21.32  0 17 32 4487 158432 12797 58% 11 74250 1600 80%
c s 22.32  0 16 32 4487 165466 19539 58% 11 74250 1600 80%
c w 22.63  0 16 32 4487 165466 19538 58% 11 74250 1600 80%
c - 23.13  0 17 33 4487 168333 14162 58% 11 74250 1600 80%
c I 23.48  0 16 33 4490 171032 16743 58% 11 74250 1600 80%
c - 24.62  0 17 34 4494 178534 14142 58% 11 74250 1600 80%
c p 24.92  0 17 34 4494 180008 15573 58% 11 74250 1600 80%
c - 26.26  0 16 35 4500 189034 14366 58% 11 74250 1600 80%
c B 26.39  0 16 35 4501 190034 15334 58% 11 74250 1600 80%
c - 27.80  0 18 36 4502 199834 14539 58% 11 74250 1600 80%
c W 29.62  0 17 36 4508 210035 24371 58% 11 74250 1600 80%
c - 29.74  0 17 37 4509 210936 15000 58% 11 74250 1600 80%
c - 31.46  0 17 38 4515 222337 15402 58% 11 74250 1600 80%
c p 31.90  0 17 38 4516 225009 17952 58% 11 74250 1600 80%
c O 32.88  0 17 38 4517 231036 23783 58% 11 74250 1600 80%
c s 33.03  0 17 38 4517 231902 24598 58% 11 74250 1600 80%
c w 33.41  0 17 38 4517 231902 24597 58% 11 74250 1600 80%
c - 33.79  0 17 39 4517 234037 16498 58% 11 74250 1600 80%
c - 35.79  0 17 40 4518 246040 16703 57% 11 74250 1600 80%
c 
c  seconds  reductions       redundant   irredundant
c         MB     restarts           trail      variables
c          level      conflicts         glue        remaining
c 
c i 36.19  0 17 40 4518 249300 19774 57% 11 74250 1599 80%
c B 36.83  0 17 40 4519 253038 23386 57% 11 74250 1599 80%
c ] 37.14  0 17 40 4519 255003 25271 57% 11 74250 1599 80%
c { 37.14  0 11 40 4519 255003 25271 57% 9 74250 1599 80%
c - 37.71  0 11 41 4616 258341 15602 57% 9 74165 1599 80%
c - 39.76  0 11 42 5037 270941 16990 57% 9 74165 1599 80%
c p 40.49  0 11 42 5182 275011 20891 57% 9 74165 1599 80%
c F 40.64  0 11 42 5189 276039 21881 57% 9 74165 1599 80%
c - 42.06  0 11 43 5374 283842 17686 57% 9 74165 1599 80%
c - 44.40  0 11 44 5926 297044 18187 57% 9 74165 1599 80%
c B 44.95  0 11 44 6086 300041 21073 57% 9 74165 1599 80%
c i 46.27  0 11 44 6446 306604 27287 56% 9 74165 1598 80%
c s 46.95  0 11 44 6590 309412 29946 56% 9 74165 1598 80%
c w 47.58  0 11 44 6590 309412 29785 56% 9 74165 1598 80%
c - 47.88  0 11 45 6630 310547 18064 56% 9 74068 1598 80%
c - 50.58  0 11 46 7342 324349 19112 57% 9 74068 1598 80%
c W 51.06  0 11 46 7422 325046 19782 57% 9 74068 1598 80%
c p 52.05  0 11 46 7609 330012 24575 56% 9 74068 1598 80%
c - 53.79  0 11 47 7899 338455 19676 57% 9 74068 1598 80%
c # 56.28  0 11 47 8449 351052 31832 56% 9 74068 1598 80%
c 
c  seconds  reductions       redundant  irredundant
c         MB     restarts           trail     variables
c          level      conflicts         glue       remaining
c 
c - 56.73  0 11 48 8505 352856 20353 56% 9 74068 1598 80%
c - 59.94  0 11 49 9192 367557 20833 56% 9 74068 1598 80%
c B 62.00  0 11 49 9721 378053 30884 56% 9 74068 1598 80%
c - 63.08  0 11 50 9964 382562 21282 56% 9 74068 1598 80%
c p 64.73  0 11 50 10471 390013 28396 56% 9 74068 1598 80%
c - 66.62  0 11 51 10813 397863 21808 56% 9 74068 1598 80%
c W 68.67  0 11 51 11177 406054 29681 56% 9 74068 1598 80%
c f 70.33  0 11 52 11526 413463 17068 56% 9 74068 1598 80%
c - 73.24  0 11 53 12386 429363 20786 57% 9 74068 1598 80%
c F 74.25  0 11 53 12651 435057 26215 57% 9 74068 1598 80%
c - 76.70  0 11 54 13307 445563 22193 56% 9 74068 1598 80%
c p 78.63  0 11 54 13621 455013 31272 56% 9 74068 1598 80%
c - 80.40  0 11 55 14035 462065 22996 56% 9 74068 1598 80%
c B 80.93  0 11 55 14144 465058 25877 56% 9 74068 1598 80%
c - 84.04  0 11 56 14917 478867 23747 56% 9 74068 1598 80%
c - 87.91  0 11 57 15589 495967 24205 57% 9 74068 1598 80%
c W 88.48  0 11 57 15589 496062 24300 57% 9 74068 1598 80%
c } 91.68  0 11 57 16208 511003 38706 57% 9 74068 1598 80%
c [ 91.68  0 17 57 16208 511003 38706 57% 11 74068 1598 80%
c - 92.23  0 17 58 16208 513368 24836 57% 11 74068 1598 80%
c 
c  seconds  reductions        redundant   irredundant
c         MB      restarts           trail      variables
c          level       conflicts         glue        remaining
c 
c p 94.60  0 17 58 16208 525014 36082 58% 11 74068 1598 80%
c W 95.85  0 17 58 16208 528063 39004 58% 11 74068 1598 80%
c - 96.42  0 17 59 16208 531071 25181 58% 11 74068 1598 80%
c - 99.90  0 16 60 16214 549072 25694 58% 10 74068 1598 80%
c i 100.11  0 16 60 16215 550193 26738 58% 10 74068 1596 80%
c s 100.16  0 16 60 16215 550193 26677 58% 10 74068 1596 80%
c w 101.79  0 16 60 16215 550193 26437 58% 10 74068 1596 80%
c t 101.79  0 16 60 16215 550193 26436 58% 10 74068 1596 80%
c I 104.60  0 16 60 16221 561065 36828 58% 10 73873 1596 80%
c - 107.18  0 16 61 16223 567373 26370 58% 10 73873 1596 80%
c i 109.97  0 16 61 16227 579291 37715 57% 10 73873 1595 80%
c - 111.69  0 16 62 16230 585975 25793 57% 10 73795 1595 80%
c i 112.03  0 15 62 16231 587742 27396 57% 10 73795 1594 80%
c B 113.85  0 15 62 16236 595066 34404 57% 10 73795 1594 80%
c i 114.35  0 15 62 16237 597211 36313 57% 10 73795 1593 80%
c p 115.48  0 15 62 16238 600014 38938 57% 10 73795 1593 80%
c i 116.02  0 15 62 16238 601608 40351 57% 10 73795 1495 75%
c - 116.94  0 15 63 16238 604878 14489 57% 10 67313 1495 75%
c i 116.99  0 15 63 16238 605171 14717 57% 10 67313 1406 70%
c i 117.03  0 15 63 16238 605307 11232 48% 10 61041 1405 70%
c 
c  seconds   reductions        redundant   irredundant
c          MB      restarts           trail      variables
c           level       conflicts         glue        remaining
c 
c i 117.18  0 15 63 16238 606311 12108 52% 10 61041 1344 67%
c i 117.25  0 15 63 16238 606816 12587 52% 10 61041 1298 65%
c ] 117.25  0 15 63 16238 606823 12590 52% 10 61041 1033 52%
c 0 117.25  0 15 63 16238 606823 12590 52% 10 61041 1033 52%
c 
c --- [ result ] -------------------------------------------------------------
c 
s UNSATISFIABLE
c 
c --- [ run-time profiling ] -------------------------------------------------
c 
c process time taken by individual solving procedures
c (percentage relative to process time for solving)
c 
c       111.21   94.87% search
c        62.33   53.17% unstable
c        45.96   39.21% stable
c         6.02    5.13% simplify
c         3.33    2.84% vivify
c         2.92    2.49% walk
c         1.81    1.55% probe
c         0.34    0.29% subsume
c         0.21    0.18% elim
c         0.12    0.10% ternary
c         0.00    0.00% lucky
c   =================================
c       117.23   99.98% solve
c 
c last line shows process time for solving
c (percentage relative to total process time)
c 
c --- [ statistics ] ---------------------------------------------------------
c 
c backtracked:              831558       137.03 %  of conflicts
c chronological:            160412        19.29 %  of backtracks
c conflicts:                606823      5176.41    per second
c decisions:                918586      7835.86    per second
c eliminated:                  400        20.00 %  of all variables
c fixed:                       567        28.35 %  of all variables
c flushed:                   29387         4.84 %  per conflict
c learned:                  592222        97.59 %  per conflict
c minimized:               2008158         6.20 %  learned literals
c propagations:          170627581         1.46 M  per second
c reduced:                  507468        83.63 %  per conflict
c rephased:                     34     17847.74    interval
c restarts:                  16238        37.37    interval
c stabilizing:                   5        43.81 %  of conflicts
c subsumed:                   9955         0.71 %  of all clauses
c strengthened:               9031         0.65 %  of all clauses
c ternary:                       1         3.23 %  of resolved
c vivified:                   1998         0.14 %  of all clauses
c walked:                       10     60682.30    interval
c weakened:                  30100         3.52    average size
c 
c seconds are measured in process time for solving
c 
c --- [ resources ] ----------------------------------------------------------
c 
c total process time since initialization:       117.25    seconds
c total real time since initialization:          117.48    seconds
c maximum resident set size of process:       119004.00    MB
c 
c --- [ shutting down ] ------------------------------------------------------
c 
c exit 20
